
Welcome to IBM(R) ILOG(R) CPLEX(R) Interactive Optimizer 22.1.1.0
  with Simplex, Mixed Integer & Barrier Optimizers
5725-A06 5725-A29 5724-Y48 5724-Y49 5724-Y54 5724-Y55 5655-Y21
Copyright IBM Corp. 1988, 2022.  All Rights Reserved.

Type 'help' for a list of available commands.
Type 'help' followed by a command name for more
information on commands.

CPLEX> Selected objective sense:  MINIMIZE
Selected objective  name:  00000000
Selected RHS        name:  RHS1
Selected bound      name:  BOUND
Problem 'ee.mps' read.
Read time = 0.03 sec. (3.17 ticks)
CPLEX> New value for time limit in seconds: 7200
CPLEX> New value for parallel optimization mode: -1
CPLEX> New value for default parallel thread count: 40
CPLEX> New value for mixed integer optimality gap tolerance: 1e-13
CPLEX> Version identifier: 22.1.1.0 | 2022-11-28 | 9160aff4d
CPXPARAM_Threads                                 40
CPXPARAM_Parallel                                -1
CPXPARAM_TimeLimit                               7200
CPXPARAM_MIP_Tolerances_MIPGap                   1e-13
Found incumbent of value 0.000000 after 0.00 sec. (0.31 ticks)
Tried aggregator 2 times.
MIP Presolve eliminated 521 rows and 3608 columns.
MIP Presolve modified 5892 coefficients.
Aggregator did 785 substitutions.
Reduced MIP has 3227 rows, 6911 columns, and 25414 nonzeros.
Reduced MIP has 6911 binaries, 0 generals, 0 SOSs, and 0 indicators.
Presolve time = 0.07 sec. (67.76 ticks)
Probing time = 0.03 sec. (5.16 ticks)
Tried aggregator 1 time.
Detecting symmetries...
Reduced MIP has 3227 rows, 6911 columns, and 25414 nonzeros.
Reduced MIP has 6911 binaries, 0 generals, 0 SOSs, and 0 indicators.
Presolve time = 0.02 sec. (19.30 ticks)
Probing time = 0.02 sec. (4.99 ticks)
Clique table members: 16525.
MIP emphasis: balance optimality and feasibility.
MIP search method: dynamic search.
Parallel mode: opportunistic, using up to 40 threads.
Root relaxation solution time = 0.11 sec. (81.06 ticks)

        Nodes                                         Cuts/
   Node  Left     Objective  IInf  Best Integer    Best Bound    ItCnt     Gap

*     0+    0                            0.0000  -1.54000e+13              --- 
*     0+    0                      -8.19000e+12  -1.54000e+13            88.03%
*     0+    0                      -9.39000e+12  -1.54000e+13            64.00%
*     0+    0                      -1.05800e+13  -1.54000e+13            45.56%
*     0+    0                      -1.17800e+13  -1.54000e+13            30.73%
*     0+    0                      -1.29800e+13  -1.54000e+13            18.64%
*     0+    0                      -1.44000e+13  -1.54000e+13             6.94%
*     0+    0                      -1.53900e+13  -1.54000e+13             0.06%
      0     0  -1.53900e+13    89  -1.53900e+13  -1.53900e+13     2021    0.00%
*     0+    0                      -1.53900e+13  -1.53900e+13             0.00%
      0     0  -1.53900e+13   123  -1.53900e+13      Cuts: 88     2854    0.00%
*     0+    0                      -1.53900e+13  -1.53900e+13             0.00%
      0     0  -1.53900e+13   188  -1.53900e+13      Cuts: 89     3008    0.00%
*     0+    0                      -1.53900e+13  -1.53900e+13             0.00%
      0     2  -1.53900e+13   162  -1.53900e+13  -1.53900e+13     3008    0.00%
Elapsed time = 2.16 sec. (1181.13 ticks, tree = 0.02 MB, solutions = 11)
    184    63  -1.53900e+13   116  -1.53900e+13  -1.53900e+13    28320    0.00%
    629    68  -1.53900e+13   113  -1.53900e+13  -1.53900e+13    29208    0.00%
   1168    87        cutoff        -1.53900e+13  -1.53900e+13    35530    0.00%
   1495   177        cutoff        -1.53900e+13  -1.53900e+13    73051    0.00%
   1980   448  -1.53900e+13    65  -1.53900e+13  -1.53900e+13   272238    0.00%
   2675   387        cutoff        -1.53900e+13  -1.53900e+13   244574    0.00%
   3590   409  -1.53900e+13   145  -1.53900e+13  -1.53900e+13   258607    0.00%
   4637   381  -1.53900e+13    45  -1.53900e+13  -1.53900e+13   238503    0.00%
   5514   541  -1.53900e+13    28  -1.53900e+13  -1.53900e+13   281619    0.00%
   8372  1527    infeasible        -1.53900e+13  -1.53900e+13   447306    0.00%
Elapsed time = 7.97 sec. (4284.53 ticks, tree = 29.58 MB, solutions = 11)
  10820  2769  -1.53900e+13   113  -1.53900e+13  -1.53900e+13   622040    0.00%

Performing restart 1

Repeating presolve.
Tried aggregator 2 times.
MIP Presolve eliminated 37 rows and 141 columns.
MIP Presolve modified 1689 coefficients.
Aggregator did 2 substitutions.
Reduced MIP has 3139 rows, 6768 columns, and 24477 nonzeros.
Reduced MIP has 6768 binaries, 0 generals, 0 SOSs, and 0 indicators.
Presolve time = 0.04 sec. (35.92 ticks)
Tried aggregator 2 times.
MIP Presolve eliminated 25 rows and 54 columns.
MIP Presolve modified 24 coefficients.
Aggregator did 10 substitutions.
Reduced MIP has 3104 rows, 6700 columns, and 24251 nonzeros.
Reduced MIP has 6700 binaries, 0 generals, 0 SOSs, and 0 indicators.
Presolve time = 0.04 sec. (41.12 ticks)
Tried aggregator 1 time.
Reduced MIP has 3104 rows, 6700 columns, and 24251 nonzeros.
Reduced MIP has 6700 binaries, 0 generals, 0 SOSs, and 0 indicators.
Presolve time = 0.03 sec. (18.20 ticks)
Represolve time = 0.33 sec. (182.53 ticks)
  11540     0  -1.53900e+13   264  -1.53900e+13      Cuts: 18   874665    0.00%
  11540     0  -1.53900e+13   246  -1.53900e+13      Cuts: 24   874708    0.00%
  11540     0  -1.53900e+13   270  -1.53900e+13  ZeroHalf: 20   874777    0.00%
  11540     0  -1.53900e+13   284  -1.53900e+13      Cuts: 31   874971    0.00%
  11540     0  -1.53900e+13   267  -1.53900e+13      Cuts: 20   875340    0.00%
  11540     0  -1.53900e+13   335  -1.53900e+13      Cuts: 47   876179    0.00%
  11540    14        cutoff        -1.53900e+13  -1.53900e+13   905433    0.00%
  12418   107  -1.53900e+13   133  -1.53900e+13  -1.53900e+13  1116147    0.00%
  14021   123        cutoff        -1.53900e+13  -1.53900e+13  1164754    0.00%
  16560    98  -1.53900e+13   172  -1.53900e+13  -1.53900e+13  1117345    0.00%
  20314   128  -1.53900e+13   300  -1.53900e+13  -1.53900e+13  1133555    0.00%
  24682   156        cutoff        -1.53900e+13  -1.53900e+13  1154869    0.00%
  27604   195  -1.53900e+13   146  -1.53900e+13  -1.53900e+13  1234762    0.00%
  29334   667  -1.53900e+13   126  -1.53900e+13  -1.53900e+13  1365141    0.00%
  30199   695        cutoff        -1.53900e+13  -1.53900e+13  1478840    0.00%
Elapsed time = 27.01 sec. (16716.30 ticks, tree = 11.49 MB, solutions = 11)

GUB cover cuts applied:  3
Clique cuts applied:  13
Cover cuts applied:  414
Mixed integer rounding cuts applied:  11
Zero-half cuts applied:  55
Lift and project cuts applied:  5
Gomory fractional cuts applied:  31

Root node processing (before b&c):
  Real time             =    1.30 sec. (1179.63 ticks)
Parallel b&c, 40 threads:
  Real time             =   25.84 sec. (16008.26 ticks)
  Sync time (average)   =    7.16 sec.
  Wait time (average)   =    0.12 sec.
                          ------------
Total (root+branch&cut) =   27.13 sec. (17187.89 ticks)

Solution pool: 11 solutions saved.

MIP - Integer optimal solution:  Objective = -1.5389998489e+13
Solution time =   27.26 sec.  Iterations = 1596823  Nodes = 30311
Deterministic time = 17187.92 ticks  (630.60 ticks/sec)

CPLEX> Solution 'p12' written to file 'ee.sol'.
CPLEX> 